letting n =  10
letting blocks =  [[1, 1], [1, 3], [1, 4], [1, 6], [2, 1], [2, 2], [2, 3], [2, 6], [3, 7], [3, 9], [3, 10], [4, 1], [4, 3], [4, 4], [4, 9], [5, 1], [5, 3], [5, 6], [5, 9], [5, 10], [6, 1], [6, 2], [6, 9], [7, 3], [7, 4], [7, 5], [7, 8], [8, 1], [8, 5], [9, 4], [9, 8], [9, 9], [10, 2], [10, 9]]
